9438.12,64.44,79.94
10008.8,60.77,75.38
9070.22,67.06,83.18
9870.98,61.62,76.43
11304.04,53.81,66.75
9848.01,61.76,76.61
9449.76,64.36,79.84
9646.93,63.05,78.21
9284.19,65.51,81.27
10617.73,57.28,71.06
10856.74,56.02,69.5
9868.22,61.63,76.46
10217.87,59.52,73.84
10196.14,59.65,74.0
10043.92,60.56,75.12
9430.49,64.49,80.0
10218.7,59.52,73.83
9904.08,61.41,76.18
10416.43,58.39,72.43
9595.95,63.38,78.63
